107786
67,58,52,82,7,27,78,5,60,14,24,68,77,40,51,38,62,3,49,64,17,36,12,72,63,0,9,28,13,69,61,79,25,75,66,19,65,35,70,44,45,53,20,8,31,73,57,76,16,55,46,59,48,33,56,2,11,22,41,54,42,80,71,50,6,26,32,10,15,37,1,29,34,74,39,81,43,21,4,18,47,23,30
